<number of tasks>
100

<cycle time>
1000

<order strength>
0.599


<task times>
1 533
2 258
3 95
4 26
5 46
6 96
7 72
8 273
9 130
10 222
11 77
12 164
13 84
14 108
15 199
16 190
17 63
18 235
19 508
20 69
21 25
22 162
23 214
24 137
25 57
26 518
27 88
28 245
29 116
30 40
31 234
32 490
33 81
34 334
35 505
36 255
37 205
38 170
39 215
40 185
41 247
42 148
43 174
44 359
45 149
46 507
47 238
48 198
49 127
50 306
51 109
52 39
53 137
54 51
55 567
56 493
57 121
58 245
59 229
60 120
61 88
62 175
63 39
64 272
65 28
66 253
67 280
68 299
69 55
70 177
71 194
72 165
73 154
74 219
75 289
76 578
77 160
78 90
79 119
80 298
81 62
82 39
83 496
84 531
85 105
86 190
87 514
88 50
89 29
90 103
91 241
92 54
93 77
94 160
95 45
96 171
97 49
98 120
99 125
100 182

<precedence relations>
1,71
2,33
3,33
4,6
4,7
4,8
5,6
5,7
5,8
6,33
7,60
8,9
8,10
8,11
8,12
8,13
9,60
10,60
11,60
12,89
13,14
13,15
13,16
13,17
13,18
13,19
14,33
15,72
16,60
17,60
18,20
18,21
18,22
18,28
18,29
18,30
18,31
19,20
19,21
19,22
19,23
19,24
19,25
20,72
21,72
22,60
23,60
24,26
24,27
24,28
24,29
24,30
24,31
25,26
25,27
25,28
25,29
25,30
25,31
26,33
27,72
28,60
29,89
30,32
30,33
30,34
30,35
30,36
30,37
30,38
31,32
31,33
31,34
31,35
31,36
31,37
31,38
32,71
33,39
33,40
33,41
33,42
33,43
33,44
33,45
33,46
34,72
35,72
36,72
37,60
38,45
38,46
39,47
39,48
39,49
39,50
39,51
40,47
40,48
40,49
40,50
40,51
41,47
41,48
41,49
41,53
41,58
42,48
42,49
42,50
43,47
43,48
43,49
43,50
43,51
44,47
44,48
44,52
44,53
44,54
44,55
45,47
45,48
45,49
45,50
45,51
46,47
46,48
46,51
47,71
48,60
49,60
50,89
51,52
51,53
51,54
51,55
52,72
53,72
54,89
55,56
55,57
55,58
56,60
57,59
57,61
57,62
58,59
58,60
58,61
59,72
60,62
60,63
60,64
60,65
60,66
60,67
60,68
60,69
60,70
61,63
61,70
61,71
62,71
63,72
64,71
65,74
65,91
66,73
66,74
66,91
67,73
68,71
68,72
69,71
70,72
70,73
70,74
70,87
71,75
71,76
71,77
71,78
71,79
71,80
71,81
71,82
71,87
71,88
72,83
72,84
72,85
72,86
73,89
75,89
75,90
75,91
78,89
78,90
79,90
80,91
81,90
82,91
84,90
84,91
85,89
85,90
85,91
87,89
88,91
89,92
89,93
89,94
89,95
89,96
89,97
89,98
89,99
89,100

<end>
